maximize
OBJ:100x0 + 100x1 + 100x2 + 100x3 + 100x4 + 100x5 + 100x6 + 100x7 + 100x8 + 100x9 + 100x10 + 100x11 + 100x12 + 100x13 + 100x14 + 100x15 + 100x16 + 100x17 + 100x18 + 100x19 + 100x20 + 100x21 + 100x22 + 100x23 + 100x24 + 100x25 + 100x26 + 100x27 + 100x28 + 100x29 + 100x30 + 100x31 + 100x32 + 100x33 + 100x34 + 100x35 + 100x36 + 100x37 + 100x38 + 100x39 + 100x40 + 100x41 + 100x42 + 100x43 + 100x44 + 100x45 + 100x46 + 100x47 + 100x48 + 100x49 + 100x50 + 100x51 + 100x52 + 100x53 + 100x54 + 100x55 + 100x56 + 100x57 + 100x58 + 100x59 + 100x60 + 100x61 + 100x62 + 100x63 - y55_57 - y7_17 - y36_53 - y15_30 - y26_30 - y36_62 - y15_39 - y26_39 - y29_32 - y8_9 - y6_48 - y40_50 - y48_63 - y0_23 - y21_55 - y41_42 - y10_36 - y41_51 - y44_47 - y3_6 - y2_50 - y32_60 - y7_12 - y15_25 - y28_53 - y7_30 - y9_49 - y17_62 - y9_58 - y21_32 - y6_43 - y21_41 - y6_61 - y10_40 - y2_36 - y10_49 - y10_58 - y2_54 - y3_19 - y22_32 - y13_51 - y35_60 - y14_37 - y16_56 - y36_52 - y17_48 - y36_61 - y54_60 - y10_35 - y33_37 - y10_44 - y2_40 - y25_42 - y51_54 - y32_50 - y13_46 - y14_23 - y32_59 - y43_59 - y1_53 - y16_51 - y17_25 - y36_38 - y55_60 - y5_41 - y17_43 - y47_56 - y17_52 - y28_52 - y5_59 - y6_24 - y58_62 - y9_57 - y21_22 - y40_44 - y21_40 - y2_17 - y20_62 - y25_28 - y23_58 - y13_32 - y24_32 - y14_18 - y1_48 - y43_63 - y1_57 - y13_59 - y24_59 - y35_59 - y5_27 - y9_25 - y9_34 - y28_47 - y17_56 - y28_56 - y50_62 - y42_58 - y21_35 - y39_43 - y10_16 - y39_52 - y31_48 - y10_25 - y62_63 - y2_21 - y20_57 - y23_53 - y1_34 - y32_49 - y43_49 - y1_43 - y13_45 - y24_45 - y35_45 - y16_50 - y24_63 - y9_11 - y17_24 - y46_60 - y57_60 - y17_33 - y9_29 - y5_58 - y50_57 - y6_32 - y42_53 - y10_11 - y2_7 - y20_61 - y12_57 - y23_57 - y13_31 - y24_31 - y32_44 - y16_27 - y13_40 - y35_40 - y43_53 - y35_58 - y16_54 - y38_51 - y49_51 - y17_28 - y38_60 - y50_52 - y19_46 - y42_48 - y50_61 - y42_57 - y39_42 - y12_25 - y20_38 - y31_38 - y31_47 - y4_30 - y4_39 - y12_52 - y13_17 - y23_61 - y53_62 - y16_31 - y24_44 - y35_44 - y16_40 - y9_10 - y38_46 - y5_21 - y57_59 - y9_19 - y5_30 - y5_39 - y42_43 - y19_50 - y27_63 - y8_59 - y19_59 - y20_24 - y30_59 - y12_20 - y42_61 - y31_33 - y12_29 - y20_42 - y4_34 - y1_10 - y12_56 - y13_21 - y23_56 - y4_52 - y16_17 - y34_53 - y1_28 - y13_30 - y4_61 - y16_26 - y22_60 - y38_41 - y15_48 - y26_48 - y57_63 - y7_44 - y15_57 - y26_57 - y7_53 - y19_27 - y27_40 - y27_49 - y50_51 - y11_41 - y8_54 - y30_54 - y42_56 - y19_63 - y30_63 - y11_59 - y52_60 - y20_37 - y4_20 - y12_33 - y23_33 - y4_47 - y1_23 - y16_21 - y37_53 - y14_60 - y37_62 - y26_34 - y46_49 - y38_45 - y7_48 - y26_61 - y7_57 - y30_31 - y0_27 - y30_40 - y27_53 - y0_36 - y19_49 - y0_45 - y4_6 - y0_54 - y52_55 - y31_32 - y23_28 - y12_37 - y23_37 - y1_9 - y34_43 - y34_52 - y37_48 - y45_61 - y3_55 - y15_20 - y26_29 - y26_38 - y18_34 - y15_47 - y26_47 - y7_43 - y18_43 - y0_13 - y7_61 - y48_62 - y27_39 - y0_22 - y8_35 - y19_35 - y30_35 - y11_31 - y19_44 - y11_40 - y60_63 - y33_46 - y41_59 - y52_59 - y10_53 - y33_55 - y34_38 - y45_47 - y34_56 - y22_63 - y3_59 - y15_24 - y15_33 - y26_33 - y18_38 - y15_51 - y7_47 - y0_8 - y7_56 - y0_17 - y29_53 - y19_30 - y29_62 - y0_35 - y11_35 - y52_54 - y4_14 - y41_63 - y33_59 - y44_59 - y22_31 - y3_27 - y34_42 - y3_36 - y45_51 - y26_28 - y11_12 - y40_48 - y0_21 - y6_55 - y11_21 - y11_30 - y25_32 - y33_54 - y25_50 - y3_13 - y33_63 - y2_57 - y3_22 - y3_31 - y15_23 - y55_59 - y18_19 - y36_55 - y28_60 - y48_56 - y11_16 - y29_52 - y40_52 - y21_48 - y10_47 - y2_52 - y14_17 - y25_54 - y32_53 - y3_26 - y14_26 - y22_39 - y32_62 - y16_63 - y15_18 - y7_14 - y47_59 - y5_53 - y17_55 - y9_60 - y29_56 - y40_56 - y21_61 - y10_24 - y10_33 - y25_31 - y2_38 - y51_52 - y24_53 - y35_62 - y16_58 - y28_32 - y17_41 - y9_37 - y36_63 - y6_22 - y29_33 - y21_29 - y40_42 - y21_47 - y39_55 - y31_60 - y2_33 - y25_35 - y32_43 - y43_52 - y43_61 - y36_40 - y9_23 - y5_34 - y36_58 - y47_58 - y5_52 - y6_17 - y9_50 - y21_24 - y10_14 - y2_19 - y54_57 - y12_51 - y23_51 - y2_37 - y13_34 - y43_56 - y16_39 - y35_52 - y13_61 - y35_61 - y5_20 - y9_18 - y5_47 - y5_56 - y21_28 - y27_62 - y8_58 - y10_18 - y2_14 - y20_50 - y31_50 - y13_20 - y32_33 - y51_55 - y1_36 - y13_47 - y1_54 - y13_56 - y24_56 - y5_15 - y46_62 - y57_62 - y9_22 - y9_40 - y5_51 - y27_48 - y6_25 - y42_46 - y58_63 - y8_53 - y30_53 - y42_55 - y0_58 - y31_36 - y23_32 - y2_18 - y20_54 - y23_50 - y31_63 - y12_59 - y1_22 - y23_59 - y1_49 - y35_51 - y5_10 - y46_48 - y9_17 - y26_60 - y6_20 - y19_39 - y61_63 - y19_57 - y11_53 - y12_18 - y53_57 - y0_62 - y23_27 - y4_32 - y1_8 - y31_58 - y1_17 - y13_19 - y24_28 - y4_59 - y45_60 - y1_35 - y38_39 - y46_52 - y9_12 - y15_46 - y38_48 - y15_55 - y7_51 - y27_29 - y8_34 - y8_43 - y27_56 - y11_39 - y0_48 - y11_48 - y30_61 - y4_18 - y23_31 - y20_44 - y4_27 - y12_40 - y23_40 - y1_12 - y4_45 - y34_46 - y16_19 - y1_30 - y1_39 - y37_60 - y5_9 - y26_41 - y38_43 - y9_16 - y7_46 - y26_59 - y49_61 - y7_55 - y18_55 - y19_20 - y27_42 - y11_34 - y8_47 - y0_43 - y8_56 - y41_53 - y52_53 - y20_30 - y52_62 - y33_58 - y23_35 - y25_63 - y1_16 - y13_18 - y34_50 - y45_59 - y56_59 - y37_55 - y5_13 - y46_51 - y38_47 - y15_54 - y18_50 - y8_15 - y8_24 - y19_24 - y30_33 - y27_46 - y0_29 - y8_42 - y19_51 - y0_47 - y41_48 - y4_8 - y12_21 - y52_57 - y4_17 - y33_53 - y12_30 - y44_53 - y1_2 - y4_35 - y1_11 - y53_58 - y14_39 - y22_52 - y3_48 - y22_61 - y15_31 - y37_49 - y18_36 - y18_63 - y30_37 - y21_56 - y11_42 - y41_43 - y33_39 - y12_16 - y22_29 - y22_38 - y3_34 - y14_34 - y45_49 - y3_43 - y45_58 - y37_54 - y7_13 - y7_22 - y18_22 - y17_63 - y18_49 - y8_14 - y48_50 - y29_46 - y11_28 - y10_41 - y10_50 - y44_52 - y2_46 - y25_48 - y33_61 - y14_20 - y14_38 - y37_40 - y14_47 - y3_56
 Subject to
C1: x0+x2 <=1 
C2: x0+x7 <=1 
C3: x0+x8-y0_8 <=1 
C4: x0+x11 <=1 
C5: x0+x12 <=1 
C6: x0+x13-y0_13 <=1 
C7: x0+x14 <=1 
C8: x0+x17-y0_17 <=1 
C9: x0+x21-y0_21 <=1 
C10: x0+x22-y0_22 <=1 
C11: x0+x23-y0_23 <=1 
C12: x0+x25 <=1 
C13: x0+x26 <=1 
C14: x0+x27-y0_27 <=1 
C15: x0+x28 <=1 
C16: x0+x29-y0_29 <=1 
C17: x0+x30 <=1 
C18: x0+x31 <=1 
C19: x0+x35-y0_35 <=1 
C20: x0+x36-y0_36 <=1 
C21: x0+x37 <=1 
C22: x0+x43-y0_43 <=1 
C23: x0+x45-y0_45 <=1 
C24: x0+x46 <=1 
C25: x0+x47-y0_47 <=1 
C26: x0+x48-y0_48 <=1 
C27: x0+x49 <=1 
C28: x0+x50 <=1 
C29: x0+x53 <=1 
C30: x0+x54-y0_54 <=1 
C31: x0+x55 <=1 
C32: x0+x56 <=1 
C33: x0+x57 <=1 
C34: x0+x58-y0_58 <=1 
C35: x0+x61 <=1 
C36: x0+x62-y0_62 <=1 
C37: x0+x63 <=1 
C38: x1+x2-y1_2 <=1 
C39: x1+x3 <=1 
C40: x1+x8-y1_8 <=1 
C41: x1+x9-y1_9 <=1 
C42: x1+x10-y1_10 <=1 
C43: x1+x11-y1_11 <=1 
C44: x1+x12-y1_12 <=1 
C45: x1+x16-y1_16 <=1 
C46: x1+x17-y1_17 <=1 
C47: x1+x18 <=1 
C48: x1+x19 <=1 
C49: x1+x21 <=1 
C50: x1+x22-y1_22 <=1 
C51: x1+x23-y1_23 <=1 
C52: x1+x26 <=1 
C53: x1+x27 <=1 
C54: x1+x28-y1_28 <=1 
C55: x1+x30-y1_30 <=1 
C56: x1+x34-y1_34 <=1 
C57: x1+x35-y1_35 <=1 
C58: x1+x36-y1_36 <=1 
C59: x1+x39-y1_39 <=1 
C60: x1+x41 <=1 
C61: x1+x43-y1_43 <=1 
C62: x1+x44 <=1 
C63: x1+x45 <=1 
C64: x1+x46 <=1 
C65: x1+x48-y1_48 <=1 
C66: x1+x49-y1_49 <=1 
C67: x1+x51 <=1 
C68: x1+x53-y1_53 <=1 
C69: x1+x54-y1_54 <=1 
C70: x1+x55 <=1 
C71: x1+x57-y1_57 <=1 
C72: x1+x58 <=1 
C73: x1+x59 <=1 
C74: x1+x61 <=1 
C75: x1+x62 <=1 
C76: x2+x4 <=1 
C77: x2+x7-y2_7 <=1 
C78: x2+x10 <=1 
C79: x2+x11 <=1 
C80: x2+x13 <=1 
C81: x2+x14-y2_14 <=1 
C82: x2+x16 <=1 
C83: x2+x17-y2_17 <=1 
C84: x2+x18-y2_18 <=1 
C85: x2+x19-y2_19 <=1 
C86: x2+x20 <=1 
C87: x2+x21-y2_21 <=1 
C88: x2+x23 <=1 
C89: x2+x24 <=1 
C90: x2+x26 <=1 
C91: x2+x29 <=1 
C92: x2+x33-y2_33 <=1 
C93: x2+x35 <=1 
C94: x2+x36-y2_36 <=1 
C95: x2+x37-y2_37 <=1 
C96: x2+x38-y2_38 <=1 
C97: x2+x39 <=1 
C98: x2+x40-y2_40 <=1 
C99: x2+x41 <=1 
C100: x2+x44 <=1 
C101: x2+x45 <=1 
C102: x2+x46-y2_46 <=1 
C103: x2+x47 <=1 
C104: x2+x50-y2_50 <=1 
C105: x2+x51 <=1 
C106: x2+x52-y2_52 <=1 
C107: x2+x53 <=1 
C108: x2+x54-y2_54 <=1 
C109: x2+x56 <=1 
C110: x2+x57-y2_57 <=1 
C111: x2+x58 <=1 
C112: x2+x60 <=1 
C113: x2+x61 <=1 
C114: x2+x63 <=1 
C115: x3+x6-y3_6 <=1 
C116: x3+x7 <=1 
C117: x3+x8 <=1 
C118: x3+x9 <=1 
C119: x3+x10 <=1 
C120: x3+x11 <=1 
C121: x3+x13-y3_13 <=1 
C122: x3+x17 <=1 
C123: x3+x19-y3_19 <=1 
C124: x3+x22-y3_22 <=1 
C125: x3+x25 <=1 
C126: x3+x26-y3_26 <=1 
C127: x3+x27-y3_27 <=1 
C128: x3+x29 <=1 
C129: x3+x30 <=1 
C130: x3+x31-y3_31 <=1 
C131: x3+x33 <=1 
C132: x3+x34-y3_34 <=1 
C133: x3+x36-y3_36 <=1 
C134: x3+x37 <=1 
C135: x3+x43-y3_43 <=1 
C136: x3+x45 <=1 
C137: x3+x46 <=1 
C138: x3+x48-y3_48 <=1 
C139: x3+x55-y3_55 <=1 
C140: x3+x56-y3_56 <=1 
C141: x3+x59-y3_59 <=1 
C142: x4+x5 <=1 
C143: x4+x6-y4_6 <=1 
C144: x4+x7 <=1 
C145: x4+x8-y4_8 <=1 
C146: x4+x14-y4_14 <=1 
C147: x4+x17-y4_17 <=1 
C148: x4+x18-y4_18 <=1 
C149: x4+x20-y4_20 <=1 
C150: x4+x21 <=1 
C151: x4+x22 <=1 
C152: x4+x23 <=1 
C153: x4+x25 <=1 
C154: x4+x27-y4_27 <=1 
C155: x4+x29 <=1 
C156: x4+x30-y4_30 <=1 
C157: x4+x31 <=1 
C158: x4+x32-y4_32 <=1 
C159: x4+x34-y4_34 <=1 
C160: x4+x35-y4_35 <=1 
C161: x4+x39-y4_39 <=1 
C162: x4+x40 <=1 
C163: x4+x41 <=1 
C164: x4+x45-y4_45 <=1 
C165: x4+x46 <=1 
C166: x4+x47-y4_47 <=1 
C167: x4+x48 <=1 
C168: x4+x52-y4_52 <=1 
C169: x4+x59-y4_59 <=1 
C170: x4+x60 <=1 
C171: x4+x61-y4_61 <=1 
C172: x4+x63 <=1 
C173: x5+x6 <=1 
C174: x5+x9-y5_9 <=1 
C175: x5+x10-y5_10 <=1 
C176: x5+x13-y5_13 <=1 
C177: x5+x15-y5_15 <=1 
C178: x5+x18 <=1 
C179: x5+x20-y5_20 <=1 
C180: x5+x21-y5_21 <=1 
C181: x5+x22 <=1 
C182: x5+x23 <=1 
C183: x5+x24 <=1 
C184: x5+x25 <=1 
C185: x5+x26 <=1 
C186: x5+x27-y5_27 <=1 
C187: x5+x30-y5_30 <=1 
C188: x5+x32 <=1 
C189: x5+x34-y5_34 <=1 
C190: x5+x38 <=1 
C191: x5+x39-y5_39 <=1 
C192: x5+x41-y5_41 <=1 
C193: x5+x42 <=1 
C194: x5+x43 <=1 
C195: x5+x45 <=1 
C196: x5+x47-y5_47 <=1 
C197: x5+x48 <=1 
C198: x5+x50 <=1 
C199: x5+x51-y5_51 <=1 
C200: x5+x52-y5_52 <=1 
C201: x5+x53-y5_53 <=1 
C202: x5+x55 <=1 
C203: x5+x56-y5_56 <=1 
C204: x5+x58-y5_58 <=1 
C205: x5+x59-y5_59 <=1 
C206: x5+x60 <=1 
C207: x6+x7 <=1 
C208: x6+x11 <=1 
C209: x6+x13 <=1 
C210: x6+x17-y6_17 <=1 
C211: x6+x20-y6_20 <=1 
C212: x6+x22-y6_22 <=1 
C213: x6+x23 <=1 
C214: x6+x24-y6_24 <=1 
C215: x6+x25-y6_25 <=1 
C216: x6+x30 <=1 
C217: x6+x32-y6_32 <=1 
C218: x6+x35 <=1 
C219: x6+x43-y6_43 <=1 
C220: x6+x45 <=1 
C221: x6+x48-y6_48 <=1 
C222: x6+x50 <=1 
C223: x6+x51 <=1 
C224: x6+x53 <=1 
C225: x6+x55-y6_55 <=1 
C226: x6+x58 <=1 
C227: x6+x59 <=1 
C228: x6+x60 <=1 
C229: x6+x61-y6_61 <=1 
C230: x6+x63 <=1 
C231: x7+x8 <=1 
C232: x7+x12-y7_12 <=1 
C233: x7+x13-y7_13 <=1 
C234: x7+x14-y7_14 <=1 
C235: x7+x17-y7_17 <=1 
C236: x7+x18 <=1 
C237: x7+x21 <=1 
C238: x7+x22-y7_22 <=1 
C239: x7+x30-y7_30 <=1 
C240: x7+x31 <=1 
C241: x7+x32 <=1 
C242: x7+x33 <=1 
C243: x7+x34 <=1 
C244: x7+x35 <=1 
C245: x7+x36 <=1 
C246: x7+x37 <=1 
C247: x7+x39 <=1 
C248: x7+x40 <=1 
C249: x7+x43-y7_43 <=1 
C250: x7+x44-y7_44 <=1 
C251: x7+x46-y7_46 <=1 
C252: x7+x47-y7_47 <=1 
C253: x7+x48-y7_48 <=1 
C254: x7+x49 <=1 
C255: x7+x51-y7_51 <=1 
C256: x7+x52 <=1 
C257: x7+x53-y7_53 <=1 
C258: x7+x54 <=1 
C259: x7+x55-y7_55 <=1 
C260: x7+x56-y7_56 <=1 
C261: x7+x57-y7_57 <=1 
C262: x7+x59 <=1 
C263: x7+x60 <=1 
C264: x7+x61-y7_61 <=1 
C265: x7+x63 <=1 
C266: x8+x9-y8_9 <=1 
C267: x8+x10 <=1 
C268: x8+x11 <=1 
C269: x8+x14-y8_14 <=1 
C270: x8+x15-y8_15 <=1 
C271: x8+x18 <=1 
C272: x8+x19 <=1 
C273: x8+x21 <=1 
C274: x8+x23 <=1 
C275: x8+x24-y8_24 <=1 
C276: x8+x26 <=1 
C277: x8+x28 <=1 
C278: x8+x31 <=1 
C279: x8+x32 <=1 
C280: x8+x34-y8_34 <=1 
C281: x8+x35-y8_35 <=1 
C282: x8+x37 <=1 
C283: x8+x42-y8_42 <=1 
C284: x8+x43-y8_43 <=1 
C285: x8+x46 <=1 
C286: x8+x47-y8_47 <=1 
C287: x8+x48 <=1 
C288: x8+x53-y8_53 <=1 
C289: x8+x54-y8_54 <=1 
C290: x8+x56-y8_56 <=1 
C291: x8+x58-y8_58 <=1 
C292: x8+x59-y8_59 <=1 
C293: x8+x62 <=1 
C294: x8+x63 <=1 
C295: x9+x10-y9_10 <=1 
C296: x9+x11-y9_11 <=1 
C297: x9+x12-y9_12 <=1 
C298: x9+x14 <=1 
C299: x9+x16-y9_16 <=1 
C300: x9+x17-y9_17 <=1 
C301: x9+x18-y9_18 <=1 
C302: x9+x19-y9_19 <=1 
C303: x9+x22-y9_22 <=1 
C304: x9+x23-y9_23 <=1 
C305: x9+x25-y9_25 <=1 
C306: x9+x26 <=1 
C307: x9+x27 <=1 
C308: x9+x29-y9_29 <=1 
C309: x9+x32 <=1 
C310: x9+x33 <=1 
C311: x9+x34-y9_34 <=1 
C312: x9+x35 <=1 
C313: x9+x36 <=1 
C314: x9+x37-y9_37 <=1 
C315: x9+x38 <=1 
C316: x9+x40-y9_40 <=1 
C317: x9+x44 <=1 
C318: x9+x46 <=1 
C319: x9+x47 <=1 
C320: x9+x49-y9_49 <=1 
C321: x9+x50-y9_50 <=1 
C322: x9+x55 <=1 
C323: x9+x57-y9_57 <=1 
C324: x9+x58-y9_58 <=1 
C325: x9+x60-y9_60 <=1 
C326: x10+x11-y10_11 <=1 
C327: x10+x13 <=1 
C328: x10+x14-y10_14 <=1 
C329: x10+x15 <=1 
C330: x10+x16-y10_16 <=1 
C331: x10+x18-y10_18 <=1 
C332: x10+x20 <=1 
C333: x10+x21 <=1 
C334: x10+x24-y10_24 <=1 
C335: x10+x25-y10_25 <=1 
C336: x10+x29 <=1 
C337: x10+x33-y10_33 <=1 
C338: x10+x34 <=1 
C339: x10+x35-y10_35 <=1 
C340: x10+x36-y10_36 <=1 
C341: x10+x37 <=1 
C342: x10+x38 <=1 
C343: x10+x40-y10_40 <=1 
C344: x10+x41-y10_41 <=1 
C345: x10+x43 <=1 
C346: x10+x44-y10_44 <=1 
C347: x10+x46 <=1 
C348: x10+x47-y10_47 <=1 
C349: x10+x48 <=1 
C350: x10+x49-y10_49 <=1 
C351: x10+x50-y10_50 <=1 
C352: x10+x51 <=1 
C353: x10+x53-y10_53 <=1 
C354: x10+x54 <=1 
C355: x10+x55 <=1 
C356: x10+x58-y10_58 <=1 
C357: x10+x59 <=1 
C358: x10+x60 <=1 
C359: x10+x63 <=1 
C360: x11+x12-y11_12 <=1 
C361: x11+x14 <=1 
C362: x11+x16-y11_16 <=1 
C363: x11+x17 <=1 
C364: x11+x20 <=1 
C365: x11+x21-y11_21 <=1 
C366: x11+x25 <=1 
C367: x11+x27 <=1 
C368: x11+x28-y11_28 <=1 
C369: x11+x30-y11_30 <=1 
C370: x11+x31-y11_31 <=1 
C371: x11+x34-y11_34 <=1 
C372: x11+x35-y11_35 <=1 
C373: x11+x36 <=1 
C374: x11+x39-y11_39 <=1 
C375: x11+x40-y11_40 <=1 
C376: x11+x41-y11_41 <=1 
C377: x11+x42-y11_42 <=1 
C378: x11+x43 <=1 
C379: x11+x46 <=1 
C380: x11+x48-y11_48 <=1 
C381: x11+x49 <=1 
C382: x11+x51 <=1 
C383: x11+x53-y11_53 <=1 
C384: x11+x59-y11_59 <=1 
C385: x11+x60 <=1 
C386: x11+x61 <=1 
C387: x11+x62 <=1 
C388: x12+x14 <=1 
C389: x12+x15 <=1 
C390: x12+x16-y12_16 <=1 
C391: x12+x17 <=1 
C392: x12+x18-y12_18 <=1 
C393: x12+x20-y12_20 <=1 
C394: x12+x21-y12_21 <=1 
C395: x12+x23 <=1 
C396: x12+x24 <=1 
C397: x12+x25-y12_25 <=1 
C398: x12+x26 <=1 
C399: x12+x27 <=1 
C400: x12+x29-y12_29 <=1 
C401: x12+x30-y12_30 <=1 
C402: x12+x33-y12_33 <=1 
C403: x12+x37-y12_37 <=1 
C404: x12+x38 <=1 
C405: x12+x40-y12_40 <=1 
C406: x12+x43 <=1 
C407: x12+x46 <=1 
C408: x12+x50 <=1 
C409: x12+x51-y12_51 <=1 
C410: x12+x52-y12_52 <=1 
C411: x12+x56-y12_56 <=1 
C412: x12+x57-y12_57 <=1 
C413: x12+x59-y12_59 <=1 
C414: x13+x14 <=1 
C415: x13+x16 <=1 
C416: x13+x17-y13_17 <=1 
C417: x13+x18-y13_18 <=1 
C418: x13+x19-y13_19 <=1 
C419: x13+x20-y13_20 <=1 
C420: x13+x21-y13_21 <=1 
C421: x13+x22 <=1 
C422: x13+x24 <=1 
C423: x13+x25 <=1 
C424: x13+x30-y13_30 <=1 
C425: x13+x31-y13_31 <=1 
C426: x13+x32-y13_32 <=1 
C427: x13+x34-y13_34 <=1 
C428: x13+x35 <=1 
C429: x13+x36 <=1 
C430: x13+x37 <=1 
C431: x13+x38 <=1 
C432: x13+x40-y13_40 <=1 
C433: x13+x45-y13_45 <=1 
C434: x13+x46-y13_46 <=1 
C435: x13+x47-y13_47 <=1 
C436: x13+x51-y13_51 <=1 
C437: x13+x52 <=1 
C438: x13+x53 <=1 
C439: x13+x55 <=1 
C440: x13+x56-y13_56 <=1 
C441: x13+x57 <=1 
C442: x13+x58 <=1 
C443: x13+x59-y13_59 <=1 
C444: x13+x60 <=1 
C445: x13+x61-y13_61 <=1 
C446: x13+x62 <=1 
C447: x14+x15 <=1 
C448: x14+x17-y14_17 <=1 
C449: x14+x18-y14_18 <=1 
C450: x14+x20-y14_20 <=1 
C451: x14+x21 <=1 
C452: x14+x22 <=1 
C453: x14+x23-y14_23 <=1 
C454: x14+x24 <=1 
C455: x14+x25 <=1 
C456: x14+x26-y14_26 <=1 
C457: x14+x27 <=1 
C458: x14+x29 <=1 
C459: x14+x30 <=1 
C460: x14+x33 <=1 
C461: x14+x34-y14_34 <=1 
C462: x14+x37-y14_37 <=1 
C463: x14+x38-y14_38 <=1 
C464: x14+x39-y14_39 <=1 
C465: x14+x46 <=1 
C466: x14+x47-y14_47 <=1 
C467: x14+x48 <=1 
C468: x14+x53 <=1 
C469: x14+x55 <=1 
C470: x14+x56 <=1 
C471: x14+x58 <=1 
C472: x14+x60-y14_60 <=1 
C473: x14+x61 <=1 
C474: x14+x62 <=1 
C475: x14+x63 <=1 
C476: x15+x16 <=1 
C477: x15+x18-y15_18 <=1 
C478: x15+x20-y15_20 <=1 
C479: x15+x21 <=1 
C480: x15+x23-y15_23 <=1 
C481: x15+x24-y15_24 <=1 
C482: x15+x25-y15_25 <=1 
C483: x15+x26 <=1 
C484: x15+x28 <=1 
C485: x15+x30-y15_30 <=1 
C486: x15+x31-y15_31 <=1 
C487: x15+x32 <=1 
C488: x15+x33-y15_33 <=1 
C489: x15+x35 <=1 
C490: x15+x36 <=1 
C491: x15+x39-y15_39 <=1 
C492: x15+x41 <=1 
C493: x15+x42 <=1 
C494: x15+x43 <=1 
C495: x15+x45 <=1 
C496: x15+x46-y15_46 <=1 
C497: x15+x47-y15_47 <=1 
C498: x15+x48-y15_48 <=1 
C499: x15+x51-y15_51 <=1 
C500: x15+x54-y15_54 <=1 
C501: x15+x55-y15_55 <=1 
C502: x15+x56 <=1 
C503: x15+x57-y15_57 <=1 
C504: x15+x58 <=1 
C505: x15+x59 <=1 
C506: x15+x60 <=1 
C507: x15+x62 <=1 
C508: x16+x17-y16_17 <=1 
C509: x16+x18 <=1 
C510: x16+x19-y16_19 <=1 
C511: x16+x21-y16_21 <=1 
C512: x16+x24 <=1 
C513: x16+x25 <=1 
C514: x16+x26-y16_26 <=1 
C515: x16+x27-y16_27 <=1 
C516: x16+x28 <=1 
C517: x16+x31-y16_31 <=1 
C518: x16+x32 <=1 
C519: x16+x37 <=1 
C520: x16+x39-y16_39 <=1 
C521: x16+x40-y16_40 <=1 
C522: x16+x44 <=1 
C523: x16+x45 <=1 
C524: x16+x46 <=1 
C525: x16+x49 <=1 
C526: x16+x50-y16_50 <=1 
C527: x16+x51-y16_51 <=1 
C528: x16+x53 <=1 
C529: x16+x54-y16_54 <=1 
C530: x16+x56-y16_56 <=1 
C531: x16+x57 <=1 
C532: x16+x58-y16_58 <=1 
C533: x16+x60 <=1 
C534: x16+x63-y16_63 <=1 
C535: x17+x18 <=1 
C536: x17+x19 <=1 
C537: x17+x24-y17_24 <=1 
C538: x17+x25-y17_25 <=1 
C539: x17+x26 <=1 
C540: x17+x27 <=1 
C541: x17+x28-y17_28 <=1 
C542: x17+x29 <=1 
C543: x17+x33-y17_33 <=1 
C544: x17+x34 <=1 
C545: x17+x35 <=1 
C546: x17+x37 <=1 
C547: x17+x40 <=1 
C548: x17+x41-y17_41 <=1 
C549: x17+x42 <=1 
C550: x17+x43-y17_43 <=1 
C551: x17+x45 <=1 
C552: x17+x48-y17_48 <=1 
C553: x17+x49 <=1 
C554: x17+x50 <=1 
C555: x17+x52-y17_52 <=1 
C556: x17+x54 <=1 
C557: x17+x55-y17_55 <=1 
C558: x17+x56-y17_56 <=1 
C559: x17+x57 <=1 
C560: x17+x60 <=1 
C561: x17+x62-y17_62 <=1 
C562: x17+x63-y17_63 <=1 
C563: x18+x19-y18_19 <=1 
C564: x18+x20 <=1 
C565: x18+x22-y18_22 <=1 
C566: x18+x28 <=1 
C567: x18+x32 <=1 
C568: x18+x34-y18_34 <=1 
C569: x18+x35 <=1 
C570: x18+x36-y18_36 <=1 
C571: x18+x37 <=1 
C572: x18+x38-y18_38 <=1 
C573: x18+x40 <=1 
C574: x18+x41 <=1 
C575: x18+x43-y18_43 <=1 
C576: x18+x45 <=1 
C577: x18+x46 <=1 
C578: x18+x47 <=1 
C579: x18+x49-y18_49 <=1 
C580: x18+x50-y18_50 <=1 
C581: x18+x51 <=1 
C582: x18+x55-y18_55 <=1 
C583: x18+x56 <=1 
C584: x18+x57 <=1 
C585: x18+x60 <=1 
C586: x18+x63-y18_63 <=1 
C587: x19+x20-y19_20 <=1 
C588: x19+x21 <=1 
C589: x19+x23 <=1 
C590: x19+x24-y19_24 <=1 
C591: x19+x27-y19_27 <=1 
C592: x19+x28 <=1 
C593: x19+x30-y19_30 <=1 
C594: x19+x32 <=1 
C595: x19+x33 <=1 
C596: x19+x34 <=1 
C597: x19+x35-y19_35 <=1 
C598: x19+x37 <=1 
C599: x19+x38 <=1 
C600: x19+x39-y19_39 <=1 
C601: x19+x40 <=1 
C602: x19+x44-y19_44 <=1 
C603: x19+x46-y19_46 <=1 
C604: x19+x49-y19_49 <=1 
C605: x19+x50-y19_50 <=1 
C606: x19+x51-y19_51 <=1 
C607: x19+x52 <=1 
C608: x19+x53 <=1 
C609: x19+x57-y19_57 <=1 
C610: x19+x59-y19_59 <=1 
C611: x19+x60 <=1 
C612: x19+x62 <=1 
C613: x19+x63-y19_63 <=1 
C614: x20+x21 <=1 
C615: x20+x23 <=1 
C616: x20+x24-y20_24 <=1 
C617: x20+x25 <=1 
C618: x20+x26 <=1 
C619: x20+x28 <=1 
C620: x20+x30-y20_30 <=1 
C621: x20+x36 <=1 
C622: x20+x37-y20_37 <=1 
C623: x20+x38-y20_38 <=1 
C624: x20+x40 <=1 
C625: x20+x42-y20_42 <=1 
C626: x20+x44-y20_44 <=1 
C627: x20+x45 <=1 
C628: x20+x46 <=1 
C629: x20+x49 <=1 
C630: x20+x50-y20_50 <=1 
C631: x20+x54-y20_54 <=1 
C632: x20+x57-y20_57 <=1 
C633: x20+x58 <=1 
C634: x20+x60 <=1 
C635: x20+x61-y20_61 <=1 
C636: x20+x62-y20_62 <=1 
C637: x20+x63 <=1 
C638: x21+x22-y21_22 <=1 
C639: x21+x24-y21_24 <=1 
C640: x21+x26 <=1 
C641: x21+x27 <=1 
C642: x21+x28-y21_28 <=1 
C643: x21+x29-y21_29 <=1 
C644: x21+x30 <=1 
C645: x21+x32-y21_32 <=1 
C646: x21+x35-y21_35 <=1 
C647: x21+x37 <=1 
C648: x21+x38 <=1 
C649: x21+x40-y21_40 <=1 
C650: x21+x41-y21_41 <=1 
C651: x21+x42 <=1 
C652: x21+x44 <=1 
C653: x21+x45 <=1 
C654: x21+x47-y21_47 <=1 
C655: x21+x48-y21_48 <=1 
C656: x21+x49 <=1 
C657: x21+x50 <=1 
C658: x21+x52 <=1 
C659: x21+x55-y21_55 <=1 
C660: x21+x56-y21_56 <=1 
C661: x21+x57 <=1 
C662: x21+x58 <=1 
C663: x21+x59 <=1 
C664: x21+x61-y21_61 <=1 
C665: x21+x63 <=1 
C666: x22+x23 <=1 
C667: x22+x29-y22_29 <=1 
C668: x22+x31-y22_31 <=1 
C669: x22+x32-y22_32 <=1 
C670: x22+x33 <=1 
C671: x22+x34 <=1 
C672: x22+x35 <=1 
C673: x22+x38-y22_38 <=1 
C674: x22+x39-y22_39 <=1 
C675: x22+x42 <=1 
C676: x22+x43 <=1 
C677: x22+x49 <=1 
C678: x22+x52-y22_52 <=1 
C679: x22+x56 <=1 
C680: x22+x58 <=1 
C681: x22+x60-y22_60 <=1 
C682: x22+x61-y22_61 <=1 
C683: x22+x62 <=1 
C684: x22+x63-y22_63 <=1 
C685: x23+x26 <=1 
C686: x23+x27-y23_27 <=1 
C687: x23+x28-y23_28 <=1 
C688: x23+x30 <=1 
C689: x23+x31-y23_31 <=1 
C690: x23+x32-y23_32 <=1 
C691: x23+x33-y23_33 <=1 
C692: x23+x35-y23_35 <=1 
C693: x23+x36 <=1 
C694: x23+x37-y23_37 <=1 
C695: x23+x40-y23_40 <=1 
C696: x23+x41 <=1 
C697: x23+x42 <=1 
C698: x23+x46 <=1 
C699: x23+x47 <=1 
C700: x23+x50-y23_50 <=1 
C701: x23+x51-y23_51 <=1 
C702: x23+x53-y23_53 <=1 
C703: x23+x54 <=1 
C704: x23+x56-y23_56 <=1 
C705: x23+x57-y23_57 <=1 
C706: x23+x58-y23_58 <=1 
C707: x23+x59-y23_59 <=1 
C708: x23+x60 <=1 
C709: x23+x61-y23_61 <=1 
C710: x23+x63 <=1 
C711: x24+x25 <=1 
C712: x24+x28-y24_28 <=1 
C713: x24+x31-y24_31 <=1 
C714: x24+x32-y24_32 <=1 
C715: x24+x33 <=1 
C716: x24+x36 <=1 
C717: x24+x38 <=1 
C718: x24+x40 <=1 
C719: x24+x42 <=1 
C720: x24+x44-y24_44 <=1 
C721: x24+x45-y24_45 <=1 
C722: x24+x48 <=1 
C723: x24+x49 <=1 
C724: x24+x51 <=1 
C725: x24+x53-y24_53 <=1 
C726: x24+x54 <=1 
C727: x24+x55 <=1 
C728: x24+x56-y24_56 <=1 
C729: x24+x57 <=1 
C730: x24+x59-y24_59 <=1 
C731: x24+x63-y24_63 <=1 
C732: x25+x26 <=1 
C733: x25+x28-y25_28 <=1 
C734: x25+x29 <=1 
C735: x25+x30 <=1 
C736: x25+x31-y25_31 <=1 
C737: x25+x32-y25_32 <=1 
C738: x25+x34 <=1 
C739: x25+x35-y25_35 <=1 
C740: x25+x36 <=1 
C741: x25+x37 <=1 
C742: x25+x38 <=1 
C743: x25+x41 <=1 
C744: x25+x42-y25_42 <=1 
C745: x25+x44 <=1 
C746: x25+x45 <=1 
C747: x25+x46 <=1 
C748: x25+x48-y25_48 <=1 
C749: x25+x50-y25_50 <=1 
C750: x25+x54-y25_54 <=1 
C751: x25+x56 <=1 
C752: x25+x60 <=1 
C753: x25+x62 <=1 
C754: x25+x63-y25_63 <=1 
C755: x26+x27 <=1 
C756: x26+x28-y26_28 <=1 
C757: x26+x29-y26_29 <=1 
C758: x26+x30-y26_30 <=1 
C759: x26+x32 <=1 
C760: x26+x33-y26_33 <=1 
C761: x26+x34-y26_34 <=1 
C762: x26+x35 <=1 
C763: x26+x36 <=1 
C764: x26+x38-y26_38 <=1 
C765: x26+x39-y26_39 <=1 
C766: x26+x40 <=1 
C767: x26+x41-y26_41 <=1 
C768: x26+x46 <=1 
C769: x26+x47-y26_47 <=1 
C770: x26+x48-y26_48 <=1 
C771: x26+x51 <=1 
C772: x26+x53 <=1 
C773: x26+x55 <=1 
C774: x26+x56 <=1 
C775: x26+x57-y26_57 <=1 
C776: x26+x59-y26_59 <=1 
C777: x26+x60-y26_60 <=1 
C778: x26+x61-y26_61 <=1 
C779: x27+x29-y27_29 <=1 
C780: x27+x30 <=1 
C781: x27+x32 <=1 
C782: x27+x33 <=1 
C783: x27+x35 <=1 
C784: x27+x36 <=1 
C785: x27+x39-y27_39 <=1 
C786: x27+x40-y27_40 <=1 
C787: x27+x41 <=1 
C788: x27+x42-y27_42 <=1 
C789: x27+x43 <=1 
C790: x27+x45 <=1 
C791: x27+x46-y27_46 <=1 
C792: x27+x47 <=1 
C793: x27+x48-y27_48 <=1 
C794: x27+x49-y27_49 <=1 
C795: x27+x50 <=1 
C796: x27+x51 <=1 
C797: x27+x52 <=1 
C798: x27+x53-y27_53 <=1 
C799: x27+x55 <=1 
C800: x27+x56-y27_56 <=1 
C801: x27+x57 <=1 
C802: x27+x60 <=1 
C803: x27+x62-y27_62 <=1 
C804: x27+x63-y27_63 <=1 
C805: x28+x29 <=1 
C806: x28+x32-y28_32 <=1 
C807: x28+x35 <=1 
C808: x28+x38 <=1 
C809: x28+x40 <=1 
C810: x28+x47-y28_47 <=1 
C811: x28+x48 <=1 
C812: x28+x50 <=1 
C813: x28+x51 <=1 
C814: x28+x52-y28_52 <=1 
C815: x28+x53-y28_53 <=1 
C816: x28+x54 <=1 
C817: x28+x56-y28_56 <=1 
C818: x28+x60-y28_60 <=1 
C819: x28+x62 <=1 
C820: x28+x63 <=1 
C821: x29+x32-y29_32 <=1 
C822: x29+x33-y29_33 <=1 
C823: x29+x34 <=1 
C824: x29+x38 <=1 
C825: x29+x42 <=1 
C826: x29+x43 <=1 
C827: x29+x46-y29_46 <=1 
C828: x29+x47 <=1 
C829: x29+x51 <=1 
C830: x29+x52-y29_52 <=1 
C831: x29+x53-y29_53 <=1 
C832: x29+x56-y29_56 <=1 
C833: x29+x57 <=1 
C834: x29+x59 <=1 
C835: x29+x62-y29_62 <=1 
C836: x29+x63 <=1 
C837: x30+x31-y30_31 <=1 
C838: x30+x32 <=1 
C839: x30+x33-y30_33 <=1 
C840: x30+x35-y30_35 <=1 
C841: x30+x37-y30_37 <=1 
C842: x30+x40-y30_40 <=1 
C843: x30+x41 <=1 
C844: x30+x47 <=1 
C845: x30+x53-y30_53 <=1 
C846: x30+x54-y30_54 <=1 
C847: x30+x55 <=1 
C848: x30+x57 <=1 
C849: x30+x58 <=1 
C850: x30+x59-y30_59 <=1 
C851: x30+x61-y30_61 <=1 
C852: x30+x63-y30_63 <=1 
C853: x31+x32-y31_32 <=1 
C854: x31+x33-y31_33 <=1 
C855: x31+x35 <=1 
C856: x31+x36-y31_36 <=1 
C857: x31+x38-y31_38 <=1 
C858: x31+x40 <=1 
C859: x31+x42 <=1 
C860: x31+x43 <=1 
C861: x31+x46 <=1 
C862: x31+x47-y31_47 <=1 
C863: x31+x48-y31_48 <=1 
C864: x31+x50-y31_50 <=1 
C865: x31+x51 <=1 
C866: x31+x52 <=1 
C867: x31+x53 <=1 
C868: x31+x54 <=1 
C869: x31+x57 <=1 
C870: x31+x58-y31_58 <=1 
C871: x31+x59 <=1 
C872: x31+x60-y31_60 <=1 
C873: x31+x61 <=1 
C874: x31+x63-y31_63 <=1 
C875: x32+x33-y32_33 <=1 
C876: x32+x34 <=1 
C877: x32+x35 <=1 
C878: x32+x37 <=1 
C879: x32+x40 <=1 
C880: x32+x41 <=1 
C881: x32+x42 <=1 
C882: x32+x43-y32_43 <=1 
C883: x32+x44-y32_44 <=1 
C884: x32+x47 <=1 
C885: x32+x49-y32_49 <=1 
C886: x32+x50-y32_50 <=1 
C887: x32+x51 <=1 
C888: x32+x53-y32_53 <=1 
C889: x32+x58 <=1 
C890: x32+x59-y32_59 <=1 
C891: x32+x60-y32_60 <=1 
C892: x32+x62-y32_62 <=1 
C893: x32+x63 <=1 
C894: x33+x34 <=1 
C895: x33+x36 <=1 
C896: x33+x37-y33_37 <=1 
C897: x33+x39-y33_39 <=1 
C898: x33+x40 <=1 
C899: x33+x41 <=1 
C900: x33+x43 <=1 
C901: x33+x45 <=1 
C902: x33+x46-y33_46 <=1 
C903: x33+x47 <=1 
C904: x33+x50 <=1 
C905: x33+x53-y33_53 <=1 
C906: x33+x54-y33_54 <=1 
C907: x33+x55-y33_55 <=1 
C908: x33+x56 <=1 
C909: x33+x58-y33_58 <=1 
C910: x33+x59-y33_59 <=1 
C911: x33+x60 <=1 
C912: x33+x61-y33_61 <=1 
C913: x33+x62 <=1 
C914: x33+x63-y33_63 <=1 
C915: x34+x35 <=1 
C916: x34+x36 <=1 
C917: x34+x37 <=1 
C918: x34+x38-y34_38 <=1 
C919: x34+x40 <=1 
C920: x34+x42-y34_42 <=1 
C921: x34+x43-y34_43 <=1 
C922: x34+x45 <=1 
C923: x34+x46-y34_46 <=1 
C924: x34+x50-y34_50 <=1 
C925: x34+x52-y34_52 <=1 
C926: x34+x53-y34_53 <=1 
C927: x34+x55 <=1 
C928: x34+x56-y34_56 <=1 
C929: x34+x58 <=1 
C930: x34+x59 <=1 
C931: x34+x61 <=1 
C932: x34+x63 <=1 
C933: x35+x40-y35_40 <=1 
C934: x35+x41 <=1 
C935: x35+x44-y35_44 <=1 
C936: x35+x45-y35_45 <=1 
C937: x35+x49 <=1 
C938: x35+x50 <=1 
C939: x35+x51-y35_51 <=1 
C940: x35+x52-y35_52 <=1 
C941: x35+x54 <=1 
C942: x35+x56 <=1 
C943: x35+x57 <=1 
C944: x35+x58-y35_58 <=1 
C945: x35+x59-y35_59 <=1 
C946: x35+x60-y35_60 <=1 
C947: x35+x61-y35_61 <=1 
C948: x35+x62-y35_62 <=1 
C949: x36+x38-y36_38 <=1 
C950: x36+x40-y36_40 <=1 
C951: x36+x41 <=1 
C952: x36+x42 <=1 
C953: x36+x43 <=1 
C954: x36+x45 <=1 
C955: x36+x47 <=1 
C956: x36+x52-y36_52 <=1 
C957: x36+x53-y36_53 <=1 
C958: x36+x55-y36_55 <=1 
C959: x36+x57 <=1 
C960: x36+x58-y36_58 <=1 
C961: x36+x59 <=1 
C962: x36+x61-y36_61 <=1 
C963: x36+x62-y36_62 <=1 
C964: x36+x63-y36_63 <=1 
C965: x37+x40-y37_40 <=1 
C966: x37+x42 <=1 
C967: x37+x45 <=1 
C968: x37+x48-y37_48 <=1 
C969: x37+x49-y37_49 <=1 
C970: x37+x50 <=1 
C971: x37+x52 <=1 
C972: x37+x53-y37_53 <=1 
C973: x37+x54-y37_54 <=1 
C974: x37+x55-y37_55 <=1 
C975: x37+x57 <=1 
C976: x37+x59 <=1 
C977: x37+x60-y37_60 <=1 
C978: x37+x62-y37_62 <=1 
C979: x38+x39-y38_39 <=1 
C980: x38+x40 <=1 
C981: x38+x41-y38_41 <=1 
C982: x38+x42 <=1 
C983: x38+x43-y38_43 <=1 
C984: x38+x44 <=1 
C985: x38+x45-y38_45 <=1 
C986: x38+x46-y38_46 <=1 
C987: x38+x47-y38_47 <=1 
C988: x38+x48-y38_48 <=1 
C989: x38+x51-y38_51 <=1 
C990: x38+x52 <=1 
C991: x38+x53 <=1 
C992: x38+x54 <=1 
C993: x38+x56 <=1 
C994: x38+x57 <=1 
C995: x38+x58 <=1 
C996: x38+x60-y38_60 <=1 
C997: x38+x61 <=1 
C998: x39+x40 <=1 
C999: x39+x42-y39_42 <=1 
C1000: x39+x43-y39_43 <=1 
C1001: x39+x44 <=1 
C1002: x39+x45 <=1 
C1003: x39+x47 <=1 
C1004: x39+x48 <=1 
C1005: x39+x49 <=1 
C1006: x39+x52-y39_52 <=1 
C1007: x39+x55-y39_55 <=1 
C1008: x39+x58 <=1 
C1009: x40+x42-y40_42 <=1 
C1010: x40+x43 <=1 
C1011: x40+x44-y40_44 <=1 
C1012: x40+x48-y40_48 <=1 
C1013: x40+x49 <=1 
C1014: x40+x50-y40_50 <=1 
C1015: x40+x52-y40_52 <=1 
C1016: x40+x53 <=1 
C1017: x40+x55 <=1 
C1018: x40+x56-y40_56 <=1 
C1019: x40+x57 <=1 
C1020: x40+x60 <=1 
C1021: x40+x61 <=1 
C1022: x40+x63 <=1 
C1023: x41+x42-y41_42 <=1 
C1024: x41+x43-y41_43 <=1 
C1025: x41+x45 <=1 
C1026: x41+x48-y41_48 <=1 
C1027: x41+x50 <=1 
C1028: x41+x51-y41_51 <=1 
C1029: x41+x53-y41_53 <=1 
C1030: x41+x54 <=1 
C1031: x41+x57 <=1 
C1032: x41+x58 <=1 
C1033: x41+x59-y41_59 <=1 
C1034: x41+x60 <=1 
C1035: x41+x61 <=1 
C1036: x41+x63-y41_63 <=1 
C1037: x42+x43-y42_43 <=1 
C1038: x42+x44 <=1 
C1039: x42+x46-y42_46 <=1 
C1040: x42+x48-y42_48 <=1 
C1041: x42+x50 <=1 
C1042: x42+x52 <=1 
C1043: x42+x53-y42_53 <=1 
C1044: x42+x55-y42_55 <=1 
C1045: x42+x56-y42_56 <=1 
C1046: x42+x57-y42_57 <=1 
C1047: x42+x58-y42_58 <=1 
C1048: x42+x59 <=1 
C1049: x42+x60 <=1 
C1050: x42+x61-y42_61 <=1 
C1051: x42+x62 <=1 
C1052: x43+x49-y43_49 <=1 
C1053: x43+x52-y43_52 <=1 
C1054: x43+x53-y43_53 <=1 
C1055: x43+x54 <=1 
C1056: x43+x56-y43_56 <=1 
C1057: x43+x57 <=1 
C1058: x43+x58 <=1 
C1059: x43+x59-y43_59 <=1 
C1060: x43+x60 <=1 
C1061: x43+x61-y43_61 <=1 
C1062: x43+x62 <=1 
C1063: x43+x63-y43_63 <=1 
C1064: x44+x47-y44_47 <=1 
C1065: x44+x52-y44_52 <=1 
C1066: x44+x53-y44_53 <=1 
C1067: x44+x54 <=1 
C1068: x44+x56 <=1 
C1069: x44+x59-y44_59 <=1 
C1070: x44+x60 <=1 
C1071: x44+x62 <=1 
C1072: x45+x47-y45_47 <=1 
C1073: x45+x49-y45_49 <=1 
C1074: x45+x50 <=1 
C1075: x45+x51-y45_51 <=1 
C1076: x45+x52 <=1 
C1077: x45+x53 <=1 
C1078: x45+x55 <=1 
C1079: x45+x56 <=1 
C1080: x45+x57 <=1 
C1081: x45+x58-y45_58 <=1 
C1082: x45+x59-y45_59 <=1 
C1083: x45+x60-y45_60 <=1 
C1084: x45+x61-y45_61 <=1 
C1085: x46+x48-y46_48 <=1 
C1086: x46+x49-y46_49 <=1 
C1087: x46+x50 <=1 
C1088: x46+x51-y46_51 <=1 
C1089: x46+x52-y46_52 <=1 
C1090: x46+x55 <=1 
C1091: x46+x59 <=1 
C1092: x46+x60-y46_60 <=1 
C1093: x46+x62-y46_62 <=1 
C1094: x46+x63 <=1 
C1095: x47+x48 <=1 
C1096: x47+x51 <=1 
C1097: x47+x53 <=1 
C1098: x47+x54 <=1 
C1099: x47+x55 <=1 
C1100: x47+x56-y47_56 <=1 
C1101: x47+x57 <=1 
C1102: x47+x58-y47_58 <=1 
C1103: x47+x59-y47_59 <=1 
C1104: x47+x63 <=1 
C1105: x48+x49 <=1 
C1106: x48+x50-y48_50 <=1 
C1107: x48+x51 <=1 
C1108: x48+x52 <=1 
C1109: x48+x53 <=1 
C1110: x48+x55 <=1 
C1111: x48+x56-y48_56 <=1 
C1112: x48+x58 <=1 
C1113: x48+x59 <=1 
C1114: x48+x62-y48_62 <=1 
C1115: x48+x63-y48_63 <=1 
C1116: x49+x50 <=1 
C1117: x49+x51-y49_51 <=1 
C1118: x49+x52 <=1 
C1119: x49+x56 <=1 
C1120: x49+x59 <=1 
C1121: x49+x61-y49_61 <=1 
C1122: x49+x63 <=1 
C1123: x50+x51-y50_51 <=1 
C1124: x50+x52-y50_52 <=1 
C1125: x50+x53 <=1 
C1126: x50+x56 <=1 
C1127: x50+x57-y50_57 <=1 
C1128: x50+x58 <=1 
C1129: x50+x61-y50_61 <=1 
C1130: x50+x62-y50_62 <=1 
C1131: x51+x52-y51_52 <=1 
C1132: x51+x53 <=1 
C1133: x51+x54-y51_54 <=1 
C1134: x51+x55-y51_55 <=1 
C1135: x51+x56 <=1 
C1136: x51+x57 <=1 
C1137: x51+x59 <=1 
C1138: x51+x60 <=1 
C1139: x51+x62 <=1 
C1140: x51+x63 <=1 
C1141: x52+x53-y52_53 <=1 
C1142: x52+x54-y52_54 <=1 
C1143: x52+x55-y52_55 <=1 
C1144: x52+x56 <=1 
C1145: x52+x57-y52_57 <=1 
C1146: x52+x59-y52_59 <=1 
C1147: x52+x60-y52_60 <=1 
C1148: x52+x61 <=1 
C1149: x52+x62-y52_62 <=1 
C1150: x53+x54 <=1 
C1151: x53+x56 <=1 
C1152: x53+x57-y53_57 <=1 
C1153: x53+x58-y53_58 <=1 
C1154: x53+x59 <=1 
C1155: x53+x61 <=1 
C1156: x53+x62-y53_62 <=1 
C1157: x53+x63 <=1 
C1158: x54+x56 <=1 
C1159: x54+x57-y54_57 <=1 
C1160: x54+x59 <=1 
C1161: x54+x60-y54_60 <=1 
C1162: x54+x62 <=1 
C1163: x55+x56 <=1 
C1164: x55+x57-y55_57 <=1 
C1165: x55+x59-y55_59 <=1 
C1166: x55+x60-y55_60 <=1 
C1167: x55+x61 <=1 
C1168: x55+x62 <=1 
C1169: x56+x57 <=1 
C1170: x56+x58 <=1 
C1171: x56+x59-y56_59 <=1 
C1172: x56+x61 <=1 
C1173: x57+x58 <=1 
C1174: x57+x59-y57_59 <=1 
C1175: x57+x60-y57_60 <=1 
C1176: x57+x62-y57_62 <=1 
C1177: x57+x63-y57_63 <=1 
C1178: x58+x59 <=1 
C1179: x58+x60 <=1 
C1180: x58+x61 <=1 
C1181: x58+x62-y58_62 <=1 
C1182: x58+x63-y58_63 <=1 
C1183: x59+x62 <=1 
C1184: x60+x62 <=1 
C1185: x60+x63-y60_63 <=1 
C1186: x61+x63-y61_63 <=1 
C1187: x62+x63-y62_63 <=1 

binary
x0
x1
x2
x3
x4
x5
x6
x7
x8
x9
x10
x11
x12
x13
x14
x15
x16
x17
x18
x19
x20
x21
x22
x23
x24
x25
x26
x27
x28
x29
x30
x31
x32
x33
x34
x35
x36
x37
x38
x39
x40
x41
x42
x43
x44
x45
x46
x47
x48
x49
x50
x51
x52
x53
x54
x55
x56
x57
x58
x59
x60
x61
x62
x63
